0 2254
1 1942
2 1942
3 1849
4 1849
5 1849
6 1849
7 1791
8 1791
9 1753
10 1729
11 1719
12 1710
13 1623
14 1563
15 1563
16 1563
17 1563
18 1563
19 1542
20 1542
21 1503
22 1434
23 1434
24 1434
25 1434
26 1398
27 1398
28 1375
29 1375
30 1364
31 1364
32 1364
33 1364
34 1332
35 1332
36 1332
37 1298
38 1298
39 1258
40 1258
41 1258
42 1258
43 1258
44 1246
45 1246
46 1246
47 1246
48 1246
49 1246
50 1246
51 1246
52 1246
53 1246
54 1238
55 1216
56 1207
57 1184
58 1184
59 1184
60 1184
61 1184
62 1184
63 1184
64 1184
65 1158
66 1158
67 1149
68 1149
69 1149
70 1149
71 1149
72 1138
73 1138
74 1125
75 1121
76 1119
77 1100
78 1100
79 1100
80 1092
81 1092
82 1092
83 1092
84 1092
85 1092
86 1092
87 1088
88 1088
89 1082
90 1082
91 1073
92 1073
93 1073
94 1073
95 1066
96 1066
97 1061
98 1061
99 1061
100 1061
101 1052
102 1041
103 1041
104 1041
105 1041
106 1038
107 1033
108 1033
109 1030
110 1030
111 1030
112 1020
113 1020
114 1010
115 1010
116 1005
117 1005
118 990
119 988
120 988
121 988
122 977
123 977
124 977
125 977
126 969
127 961
128 961
129 960
130 960
131 951
132 951
133 951
134 936
135 936
136 931
137 931
138 927
139 925
140 925
141 925
142 925
143 925
144 922
145 922
146 919
147 913
148 913
149 909
150 909
151 909
152 909
153 909
154 909
155 909
156 909
157 909
158 903
159 903
160 903
161 903
162 903
163 903
164 903
165 903
166 903
167 902
168 894
169 894
170 894
171 894
172 894
173 894
174 894
175 894
176 894
177 894
178 893
179 893
180 893
181 893
182 893
183 890
184 890
185 890
186 890
187 890
188 856
189 856
190 855
191 855
192 855
193 855
194 855
195 842
196 842
197 841
198 841
199 841
200 841
201 841
202 841
203 841
204 841
205 841
206 841
207 841
208 841
209 841
210 841
211 841
212 841
213 840
214 840
215 840
216 840
217 840
218 840
219 840
220 840
221 840
222 840
223 840
224 840
225 840
226 840
227 840
228 840
229 840
230 840
231 840
232 840
233 840
234 840
235 840
236 840
237 840
238 840
239 840
240 840
241 840
242 840
243 840
244 840
245 840
246 840
247 840
248 840
249 840
250 840
251 840
252 840
253 840
254 840
255 840
256 840
257 840
258 840
259 840
260 840
261 840
262 840
263 840
264 840
265 840
266 840
267 840
268 840
269 840
270 840
271 840
272 840
273 840
274 840
275 840
276 840
277 840
278 840
279 840
280 840
281 840
282 840
283 840
284 840
285 840
286 840
287 840
288 840
289 840
290 840
291 840
292 840
293 840
294 840
295 840
296 840
297 840
298 840
299 840
300 840
301 840
302 840
303 840
304 840
305 840
306 840
307 840
308 840
309 840
310 840
311 840
312 840
313 840
314 840
315 840
316 840
317 840
318 840
319 840
320 840
321 840
322 840
323 840
324 840
325 840
326 840
327 840
328 840
329 840
330 840
331 840
332 840
333 840
334 840
335 840
336 840
337 840
338 840
339 840
340 840
341 840
342 840
343 840
344 840
345 840
346 840
347 840
348 840
349 840
350 840
351 840
352 840
353 840
354 840
355 840
356 840
357 840
358 840
359 840
360 840
361 840
362 840
363 840
364 840
365 840
366 840
367 840
368 840
369 840
370 840
371 840
372 840
373 840
374 840
375 840
376 840
377 840
378 840
379 840
380 840
381 840
382 840
383 840
384 840
385 840
386 840
387 840
388 840
389 840
390 840
391 840
392 840
393 840
394 840
395 840
396 840
397 840
398 840
399 840
400 840
401 840
402 840
403 840
404 840
405 840
406 840
407 840
408 840
409 840
410 840
411 840
412 840
413 840
414 840
415 840
416 840
417 840
418 840
419 840
420 840
421 840
422 840
423 840
424 840
425 840
426 840
427 840
428 840
429 840
430 840
431 840
432 840
433 840
434 840
435 840
436 840
437 840
438 840
439 840
440 840
441 840
442 840
443 840
444 840
445 840
446 840
447 840
448 840
449 840
450 840
451 840
452 840
453 840
454 840
455 840
456 840
457 840
458 840
459 840
460 840
461 840
462 840
463 840
464 840
465 840
466 840
467 840
468 840
469 840
470 840
471 840
472 840
473 840
474 840
475 840
476 840
477 840
478 840
479 840
480 840
481 840
482 840
483 840
484 840
485 840
486 840
487 840
488 840
489 840
490 840
491 840
492 840
493 840
494 840
495 840
496 840
497 840
498 840
499 840
500 840
501 840
502 840
503 840
504 840
505 840
506 840
507 840
508 840
509 840
510 840
511 840
512 840
513 840
514 840
515 840
516 840
517 840
518 840
519 840
520 840
521 840
522 840
523 840
524 840
525 840
526 840
527 840
528 840
529 840
530 840
531 840
532 840
533 840
534 840
535 840
536 840
537 840
538 840
539 840
540 840
541 840
542 840
543 840
544 840
545 840
546 840
547 840
548 840
549 840
550 840
551 840
552 840
553 840
554 840
555 840
556 840
557 840
558 840
559 840
560 840
561 840
562 840
563 840
564 840
565 840
566 840
567 840
568 840
569 840
570 840
571 840
572 840
573 840
574 840
575 840
576 840
577 840
578 840
579 840
580 840
581 840
582 840
583 840
584 840
585 840
586 840
587 840
588 840
589 840
590 840
591 840
592 840
593 840
594 840
595 840
596 840
597 840
598 840
599 840
600 840
601 840
602 840
603 840
604 840
605 840
606 840
607 840
608 840
609 840
610 840
611 840
612 840
613 840
614 840
615 840
616 840
617 840
618 840
619 840
620 840
621 840
622 840
623 840
624 840
625 840
626 840
627 840
628 840
629 840
630 840
631 840
632 840
633 840
634 840
635 840
636 840
637 840
638 840
639 840
640 840
641 840
642 840
643 840
644 840
645 840
646 840
647 840
648 840
649 840
650 840
651 840
652 840
653 840
654 840
655 840
656 840
657 840
658 840
659 840
660 840
661 840
662 840
663 840
664 840
665 840
666 840
667 840
668 840
669 840
670 840
671 840
672 840
673 840
674 840
675 840
676 840
677 840
678 840
679 840
680 840
681 840
682 840
683 840
684 840
685 840
686 840
687 840
688 840
689 840
690 840
691 840
692 840
693 840
694 840
695 840
696 840
697 840
698 840
699 840
700 840
701 840
702 840
703 840
704 840
705 840
706 840
707 840
708 840
709 840
710 840
711 840
712 840
713 840
714 840
715 840
716 840
717 840
718 840
719 840
720 840
721 840
722 840
723 840
724 840
725 840
726 840
727 840
728 840
729 840
730 840
731 840
732 840
733 840
734 840
735 840
736 840
737 840
738 840
739 840
740 840
741 840
742 840
743 840
744 840
745 840
746 840
747 840
748 840
749 840
750 840
751 840
752 840
753 840
754 840
755 840
756 840
757 840
758 840
759 840
760 840
761 840
762 840
763 840
764 840
765 840
766 840
767 840
768 840
769 840
770 840
771 840
772 840
773 840
774 840
775 840
776 840
777 840
778 840
779 840
780 840
781 840
782 840
783 840
784 840
785 840
786 840
787 840
788 840
789 840
790 840
791 840
792 840
793 840
794 840
795 840
796 840
797 840
798 840
799 840
800 840
801 840
802 840
803 840
804 840
805 840
806 840
807 840
808 840
809 840
810 840
811 840
812 840
813 840
814 840
815 840
816 840
817 840
818 840
819 840
820 840
821 840
822 840
823 840
824 840
825 840
826 840
827 840
828 840
829 840
830 840
831 840
832 840
833 840
834 840
835 840
836 840
837 840
838 840
839 840
840 840
841 840
842 840
843 840
844 840
845 840
846 840
847 840
848 840
849 840
850 840
851 840
852 840
853 840
854 840
855 840
856 840
857 840
858 840
859 840
860 840
861 840
862 840
863 840
864 840
865 840
866 840
867 840
868 840
869 840
870 840
871 840
872 840
873 840
874 840
875 840
876 840
877 840
878 840
879 840
880 840
881 840
882 840
883 840
884 840
885 840
886 840
887 840
888 840
889 840
890 840
891 840
892 840
893 840
894 840
895 840
896 840
897 840
898 840
899 840
900 840
901 840
902 840
903 840
904 840
905 840
906 840
907 840
908 840
909 840
910 840
911 840
912 840
913 840
914 840
915 840
916 840
917 840
918 840
919 840
920 840
921 840
922 840
923 840
924 840
925 840
926 840
927 840
928 840
929 840
930 840
931 840
932 840
933 840
934 840
935 840
936 840
937 840
938 840
939 840
940 840
941 840
942 840
943 840
944 840
945 840
946 840
947 840
948 840
949 840
950 840
951 840
952 840
953 840
954 840
955 840
956 840
957 840
958 840
959 840
960 840
961 840
962 840
963 840
964 840
965 840
966 840
967 840
968 840
969 840
970 840
971 840
972 840
973 840
974 840
975 840
976 840
977 840
978 840
979 840
980 840
981 840
982 840
983 840
984 840
985 840
986 840
987 840
988 840
989 840
990 840
991 840
992 840
993 840
994 840
995 840
996 840
997 840
998 840
999 840
Best: [[30,11,16,9,12,5,29,7],
       [31,17,2,13],
       [21,6,26,23,10,19,24,3,4,15],
       [25,28],
       [27,8,14,18,20,32,22]], fitness: 840
